c A SAT instance generated from a 3-CNF formula that had 32 clauses and 8 variables
p cnf 8 32
-6 3 5 0
-6 -7 -4 0
5 -4 3 0
4 2 8 0
-6 -2 7 0
-6 -2 3 0
5 -7 -6 0
-3 1 -6 0
1 -8 -3 0
8 3 -4 0
6 -4 -7 0
5 6 -2 0
-8 -1 -7 0
-3 8 -7 0
-7 6 -3 0
-2 3 -5 0
-3 -6 -2 0
-8 -6 -7 0
-1 3 4 0
-4 6 -8 0
-7 2 6 0
-6 -5 -7 0
7 8 5 0
3 4 -1 0
3 5 -7 0
3 -6 -5 0
-5 -1 6 0
-5 -8 1 0
-5 6 -8 0
6 -5 7 0
-2 -5 7 0
-6 -2 -3 0
